instances/knapsack/discrete_knapsack_uncertainty/knapsack_60_1.lp
\ Model knapsack_60_1
\ LP format - for model browsing. Use MPS format to capture full model detail.
\ Signature: 0x44a844bc7146bef8
Minimize
  - 95 x[0] - 59 x[1] - 45 x[2] - 97 x[3] - 22 x[4] - 26 x[5] - 58 x[6]
   - 16 x[7] - 71 x[8] - 47 x[9] - 44 x[10] - 16 x[11] - 28 x[12]
   - 23 x[13] - 64 x[14] - 37 x[15] - 55 x[16] - 31 x[17] - 31 x[18]
   - 74 x[19] - 82 x[20] - 60 x[21] - 25 x[22] - 89 x[23] - 86 x[24]
   - 87 x[25] - 73 x[26] - 72 x[27] - 83 x[28] - 29 x[29] - 94 x[30]
   - 9 x[31] - 5 x[32] - 56 x[33] - 92 x[34] - 34 x[35] - 50 x[36]
   - 84 x[37] - 7 x[38] - 12 x[39] - 49 x[40] - 86 x[41] - 90 x[42]
   - 16 x[43] - 51 x[44] - 36 x[45] - 65 x[46] - 21 x[47] - 49 x[48]
   - 10 x[49] - 40 x[50] - 35 x[51] - 76 x[52] - 90 x[53] - 49 x[54]
   - 39 x[55] - 55 x[56] - 9 x[57] - 37 x[58] - 100 x[59]
Subject To
 primal_upper: 70 x[0] + 15 x[1] + 93 x[2] + 94 x[3] + 63 x[4] + 4 x[5]
   + 56 x[6] + 94 x[7] + 60 x[8] + 73 x[9] + 50 x[10] + 74 x[11] + 35 x[12]
   + 55 x[13] + 51 x[14] + 39 x[15] + 96 x[16] + 59 x[17] + 80 x[18]
   + 21 x[19] + 60 x[20] + 34 x[21] + 47 x[22] + 89 x[23] + 19 x[24]
   + 83 x[25] + 25 x[26] + 70 x[27] + 40 x[28] + 6 x[29] + 96 x[30]
   + 6 x[31] + 62 x[32] + 60 x[33] + 59 x[34] + 84 x[35] + 55 x[36]
   + 31 x[37] + 75 x[38] + x[39] + 50 x[40] + 84 x[41] + 65 x[42]
   + 28 x[43] + 26 x[44] + 25 x[45] + 76 x[46] + 12 x[47] + 38 x[48]
   + 47 x[49] + 33 x[50] + 51 x[51] + 60 x[52] + 15 x[53] + 87 x[54]
   + 86 x[55] + 76 x[56] + 73 x[57] + 95 x[58] + 73 x[59] + 7 r[0]
   + 1.5 r[1] + 9.3 r[2] + 9.4 r[3] + 6.3 r[4] + 0.4 r[5] + 5.6 r[6]
   + 9.4 r[7] + 6 r[8] + 7.3 r[9] + 5 r[10] + 7.4 r[11] + 3.5 r[12]
   + 5.5 r[13] + 5.1 r[14] + 3.9 r[15] + 9.6 r[16] + 5.9 r[17] + 8 r[18]
   + 2.1 r[19] + 6 r[20] + 3.4 r[21] + 4.7 r[22] + 8.9 r[23] + 1.9 r[24]
   + 8.3 r[25] + 2.5 r[26] + 7 r[27] + 4 r[28] + 0.6 r[29] + 9.6 r[30]
   + 0.6 r[31] + 6.2 r[32] + 6 r[33] + 5.9 r[34] + 8.4 r[35] + 5.5 r[36]
   + 3.1 r[37] + 7.5 r[38] + 0.1 r[39] + 5 r[40] + 8.4 r[41] + 6.5 r[42]
   + 2.8 r[43] + 2.6 r[44] + 2.5 r[45] + 7.6 r[46] + 1.2 r[47] + 3.8 r[48]
   + 4.7 r[49] + 3.3 r[50] + 5.1 r[51] + 6 r[52] + 1.5 r[53] + 8.7 r[54]
   + 8.6 r[55] + 7.6 r[56] + 7.3 r[57] + 9.5 r[58] + 7.3 r[59] <= 312
 primal_lower: 0.6993455479464308 x[0] + 2.078469485676969 x[1]
   + 3.551577142603067 x[2] + 0.2103199613771542 x[3]
   + 1.771728873841101 x[4] + 1.244139083082872 x[5]
   + 1.16503321696737 x[6] + 3.544707246899516 x[7]
   + 0.5114418514077319 x[8] + 0.5039172995335931 x[9]
   + 2.223082814552865 x[10] + 2.132935771772948 x[11]
   + 1.415742799829133 x[12] + 1.776402878758026 x[13]
   + 3.294486642270853 x[14] + 4.563860402759923 x[15]
   + 4.953276502572195 x[16] + 0.8359035830140035 x[17]
   + 1.084596241756597 x[18] + 4.451669027465384 x[19]
   + 4.824121006952811 x[20] + 1.285404099670894 x[21]
   + 4.667248333511713 x[22] + 0.0984787497212923 x[23]
   + 1.17650010812917 x[24] + 0.6893979732591726 x[25]
   + 2.921324128858872 x[26] + 1.217138640323699 x[27]
   + 4.183947161798182 x[28] + 4.68867366971962 x[29]
   + 1.140350109382454 x[30] + 0.5359952411846211 x[31]
   + 4.127249295324418 x[32] + 4.818852646414791 x[33]
   + 2.755476383441619 x[34] + 3.964156286685769 x[35]
   + 4.425770647393173 x[36] + 3.791793149800239 x[37]
   + 1.342504031087182 x[38] + 0.138596610845579 x[39]
   + 3.78254446260631 x[40] + 5.028299687594205 x[41]
   + 4.913710840986271 x[42] + 2.355820396454292 x[43]
   + 3.899164788016684 x[44] + 1.207461876825598 x[45]
   + 1.127787237952682 x[46] + 4.992786676990374 x[47]
   + 2.461556798736432 x[48] + 0.9208057268241899 x[49]
   + 1.389293343284712 x[50] + 1.124835909344424 x[51]
   + 3.733737767537254 x[52] + 3.078111985298003 x[53]
   + 0.8637883427354959 x[54] + 3.680294410819481 x[55]
   + 2.279301719756293 x[56] + 3.7369550002049 x[57]
   + 3.535327391211851 x[58] + 3.471678213643468 x[59] + 76 u[0] + 49 u[1]
   + 3 u[2] + 72 u[3] + 41 u[4] + 14 u[5] + 98 u[6] + 96 u[7] + 74 u[8]
   + 79 u[9] + 88 u[10] + 32 u[11] + 37 u[12] + 97 u[13] + 49 u[14]
   + 97 u[15] + 74 u[16] + 77 u[17] + 30 u[18] + 95 u[19] + 18 u[20]
   + 96 u[21] + 81 u[22] + 19 u[23] + 81 u[24] + 93 u[25] + 47 u[26]
   + 4 u[27] + 34 u[28] + 20 u[29] + 62 u[30] + 84 u[31] + 4 u[32]
   + 58 u[33] + 21 u[34] + 2 u[35] + 29 u[36] + 77 u[37] + 85 u[38]
   + 31 u[39] + 56 u[40] + 26 u[41] + 63 u[42] + 50 u[43] + 96 u[44]
   + 11 u[45] + 18 u[46] + 22 u[47] + 68 u[48] + 57 u[49] + 63 u[50]
   + 5 u[51] + 70 u[52] + 73 u[53] + 77 u[54] + 52 u[55] + 30 u[56]
   + 47 u[57] + u[58] + 91 u[59] <= 71271
 mccormick1[0]: - u[0] + r[0] <= 0
 mccormick1[1]: - u[1] + r[1] <= 0
 mccormick1[2]: - u[2] + r[2] <= 0
 mccormick1[3]: - u[3] + r[3] <= 0
 mccormick1[4]: - u[4] + r[4] <= 0
 mccormick1[5]: - u[5] + r[5] <= 0
 mccormick1[6]: - u[6] + r[6] <= 0
 mccormick1[7]: - u[7] + r[7] <= 0
 mccormick1[8]: - u[8] + r[8] <= 0
 mccormick1[9]: - u[9] + r[9] <= 0
 mccormick1[10]: - u[10] + r[10] <= 0
 mccormick1[11]: - u[11] + r[11] <= 0
 mccormick1[12]: - u[12] + r[12] <= 0
 mccormick1[13]: - u[13] + r[13] <= 0
 mccormick1[14]: - u[14] + r[14] <= 0
 mccormick1[15]: - u[15] + r[15] <= 0
 mccormick1[16]: - u[16] + r[16] <= 0
 mccormick1[17]: - u[17] + r[17] <= 0
 mccormick1[18]: - u[18] + r[18] <= 0
 mccormick1[19]: - u[19] + r[19] <= 0
 mccormick1[20]: - u[20] + r[20] <= 0
 mccormick1[21]: - u[21] + r[21] <= 0
 mccormick1[22]: - u[22] + r[22] <= 0
 mccormick1[23]: - u[23] + r[23] <= 0
 mccormick1[24]: - u[24] + r[24] <= 0
 mccormick1[25]: - u[25] + r[25] <= 0
 mccormick1[26]: - u[26] + r[26] <= 0
 mccormick1[27]: - u[27] + r[27] <= 0
 mccormick1[28]: - u[28] + r[28] <= 0
 mccormick1[29]: - u[29] + r[29] <= 0
 mccormick1[30]: - u[30] + r[30] <= 0
 mccormick1[31]: - u[31] + r[31] <= 0
 mccormick1[32]: - u[32] + r[32] <= 0
 mccormick1[33]: - u[33] + r[33] <= 0
 mccormick1[34]: - u[34] + r[34] <= 0
 mccormick1[35]: - u[35] + r[35] <= 0
 mccormick1[36]: - u[36] + r[36] <= 0
 mccormick1[37]: - u[37] + r[37] <= 0
 mccormick1[38]: - u[38] + r[38] <= 0
 mccormick1[39]: - u[39] + r[39] <= 0
 mccormick1[40]: - u[40] + r[40] <= 0
 mccormick1[41]: - u[41] + r[41] <= 0
 mccormick1[42]: - u[42] + r[42] <= 0
 mccormick1[43]: - u[43] + r[43] <= 0
 mccormick1[44]: - u[44] + r[44] <= 0
 mccormick1[45]: - u[45] + r[45] <= 0
 mccormick1[46]: - u[46] + r[46] <= 0
 mccormick1[47]: - u[47] + r[47] <= 0
 mccormick1[48]: - u[48] + r[48] <= 0
 mccormick1[49]: - u[49] + r[49] <= 0
 mccormick1[50]: - u[50] + r[50] <= 0
 mccormick1[51]: - u[51] + r[51] <= 0
 mccormick1[52]: - u[52] + r[52] <= 0
 mccormick1[53]: - u[53] + r[53] <= 0
 mccormick1[54]: - u[54] + r[54] <= 0
 mccormick1[55]: - u[55] + r[55] <= 0
 mccormick1[56]: - u[56] + r[56] <= 0
 mccormick1[57]: - u[57] + r[57] <= 0
 mccormick1[58]: - u[58] + r[58] <= 0
 mccormick1[59]: - u[59] + r[59] <= 0
 mccormick2[0]: - x[0] + r[0] <= 0
 mccormick2[1]: - x[1] + r[1] <= 0
 mccormick2[2]: - x[2] + r[2] <= 0
 mccormick2[3]: - x[3] + r[3] <= 0
 mccormick2[4]: - x[4] + r[4] <= 0
 mccormick2[5]: - x[5] + r[5] <= 0
 mccormick2[6]: - x[6] + r[6] <= 0
 mccormick2[7]: - x[7] + r[7] <= 0
 mccormick2[8]: - x[8] + r[8] <= 0
 mccormick2[9]: - x[9] + r[9] <= 0
 mccormick2[10]: - x[10] + r[10] <= 0
 mccormick2[11]: - x[11] + r[11] <= 0
 mccormick2[12]: - x[12] + r[12] <= 0
 mccormick2[13]: - x[13] + r[13] <= 0
 mccormick2[14]: - x[14] + r[14] <= 0
 mccormick2[15]: - x[15] + r[15] <= 0
 mccormick2[16]: - x[16] + r[16] <= 0
 mccormick2[17]: - x[17] + r[17] <= 0
 mccormick2[18]: - x[18] + r[18] <= 0
 mccormick2[19]: - x[19] + r[19] <= 0
 mccormick2[20]: - x[20] + r[20] <= 0
 mccormick2[21]: - x[21] + r[21] <= 0
 mccormick2[22]: - x[22] + r[22] <= 0
 mccormick2[23]: - x[23] + r[23] <= 0
 mccormick2[24]: - x[24] + r[24] <= 0
 mccormick2[25]: - x[25] + r[25] <= 0
 mccormick2[26]: - x[26] + r[26] <= 0
 mccormick2[27]: - x[27] + r[27] <= 0
 mccormick2[28]: - x[28] + r[28] <= 0
 mccormick2[29]: - x[29] + r[29] <= 0
 mccormick2[30]: - x[30] + r[30] <= 0
 mccormick2[31]: - x[31] + r[31] <= 0
 mccormick2[32]: - x[32] + r[32] <= 0
 mccormick2[33]: - x[33] + r[33] <= 0
 mccormick2[34]: - x[34] + r[34] <= 0
 mccormick2[35]: - x[35] + r[35] <= 0
 mccormick2[36]: - x[36] + r[36] <= 0
 mccormick2[37]: - x[37] + r[37] <= 0
 mccormick2[38]: - x[38] + r[38] <= 0
 mccormick2[39]: - x[39] + r[39] <= 0
 mccormick2[40]: - x[40] + r[40] <= 0
 mccormick2[41]: - x[41] + r[41] <= 0
 mccormick2[42]: - x[42] + r[42] <= 0
 mccormick2[43]: - x[43] + r[43] <= 0
 mccormick2[44]: - x[44] + r[44] <= 0
 mccormick2[45]: - x[45] + r[45] <= 0
 mccormick2[46]: - x[46] + r[46] <= 0
 mccormick2[47]: - x[47] + r[47] <= 0
 mccormick2[48]: - x[48] + r[48] <= 0
 mccormick2[49]: - x[49] + r[49] <= 0
 mccormick2[50]: - x[50] + r[50] <= 0
 mccormick2[51]: - x[51] + r[51] <= 0
 mccormick2[52]: - x[52] + r[52] <= 0
 mccormick2[53]: - x[53] + r[53] <= 0
 mccormick2[54]: - x[54] + r[54] <= 0
 mccormick2[55]: - x[55] + r[55] <= 0
 mccormick2[56]: - x[56] + r[56] <= 0
 mccormick2[57]: - x[57] + r[57] <= 0
 mccormick2[58]: - x[58] + r[58] <= 0
 mccormick2[59]: - x[59] + r[59] <= 0
 mccormick3[0]: x[0] + u[0] - r[0] <= 1
 mccormick3[1]: x[1] + u[1] - r[1] <= 1
 mccormick3[2]: x[2] + u[2] - r[2] <= 1
 mccormick3[3]: x[3] + u[3] - r[3] <= 1
 mccormick3[4]: x[4] + u[4] - r[4] <= 1
 mccormick3[5]: x[5] + u[5] - r[5] <= 1
 mccormick3[6]: x[6] + u[6] - r[6] <= 1
 mccormick3[7]: x[7] + u[7] - r[7] <= 1
 mccormick3[8]: x[8] + u[8] - r[8] <= 1
 mccormick3[9]: x[9] + u[9] - r[9] <= 1
 mccormick3[10]: x[10] + u[10] - r[10] <= 1
 mccormick3[11]: x[11] + u[11] - r[11] <= 1
 mccormick3[12]: x[12] + u[12] - r[12] <= 1
 mccormick3[13]: x[13] + u[13] - r[13] <= 1
 mccormick3[14]: x[14] + u[14] - r[14] <= 1
 mccormick3[15]: x[15] + u[15] - r[15] <= 1
 mccormick3[16]: x[16] + u[16] - r[16] <= 1
 mccormick3[17]: x[17] + u[17] - r[17] <= 1
 mccormick3[18]: x[18] + u[18] - r[18] <= 1
 mccormick3[19]: x[19] + u[19] - r[19] <= 1
 mccormick3[20]: x[20] + u[20] - r[20] <= 1
 mccormick3[21]: x[21] + u[21] - r[21] <= 1
 mccormick3[22]: x[22] + u[22] - r[22] <= 1
 mccormick3[23]: x[23] + u[23] - r[23] <= 1
 mccormick3[24]: x[24] + u[24] - r[24] <= 1
 mccormick3[25]: x[25] + u[25] - r[25] <= 1
 mccormick3[26]: x[26] + u[26] - r[26] <= 1
 mccormick3[27]: x[27] + u[27] - r[27] <= 1
 mccormick3[28]: x[28] + u[28] - r[28] <= 1
 mccormick3[29]: x[29] + u[29] - r[29] <= 1
 mccormick3[30]: x[30] + u[30] - r[30] <= 1
 mccormick3[31]: x[31] + u[31] - r[31] <= 1
 mccormick3[32]: x[32] + u[32] - r[32] <= 1
 mccormick3[33]: x[33] + u[33] - r[33] <= 1
 mccormick3[34]: x[34] + u[34] - r[34] <= 1
 mccormick3[35]: x[35] + u[35] - r[35] <= 1
 mccormick3[36]: x[36] + u[36] - r[36] <= 1
 mccormick3[37]: x[37] + u[37] - r[37] <= 1
 mccormick3[38]: x[38] + u[38] - r[38] <= 1
 mccormick3[39]: x[39] + u[39] - r[39] <= 1
 mccormick3[40]: x[40] + u[40] - r[40] <= 1
 mccormick3[41]: x[41] + u[41] - r[41] <= 1
 mccormick3[42]: x[42] + u[42] - r[42] <= 1
 mccormick3[43]: x[43] + u[43] - r[43] <= 1
 mccormick3[44]: x[44] + u[44] - r[44] <= 1
 mccormick3[45]: x[45] + u[45] - r[45] <= 1
 mccormick3[46]: x[46] + u[46] - r[46] <= 1
 mccormick3[47]: x[47] + u[47] - r[47] <= 1
 mccormick3[48]: x[48] + u[48] - r[48] <= 1
 mccormick3[49]: x[49] + u[49] - r[49] <= 1
 mccormick3[50]: x[50] + u[50] - r[50] <= 1
 mccormick3[51]: x[51] + u[51] - r[51] <= 1
 mccormick3[52]: x[52] + u[52] - r[52] <= 1
 mccormick3[53]: x[53] + u[53] - r[53] <= 1
 mccormick3[54]: x[54] + u[54] - r[54] <= 1
 mccormick3[55]: x[55] + u[55] - r[55] <= 1
 mccormick3[56]: x[56] + u[56] - r[56] <= 1
 mccormick3[57]: x[57] + u[57] - r[57] <= 1
 mccormick3[58]: x[58] + u[58] - r[58] <= 1
 mccormick3[59]: x[59] + u[59] - r[59] <= 1
Bounds
Binaries
 x[0] x[1] x[2] x[3] x[4] x[5] x[6] x[7] x[8] x[9] x[10] x[11] x[12] x[13]
 x[14] x[15] x[16] x[17] x[18] x[19] x[20] x[21] x[22] x[23] x[24] x[25]
 x[26] x[27] x[28] x[29] x[30] x[31] x[32] x[33] x[34] x[35] x[36] x[37]
 x[38] x[39] x[40] x[41] x[42] x[43] x[44] x[45] x[46] x[47] x[48] x[49]
 x[50] x[51] x[52] x[53] x[54] x[55] x[56] x[57] x[58] x[59] u[0] u[1] u[2]
 u[3] u[4] u[5] u[6] u[7] u[8] u[9] u[10] u[11] u[12] u[13] u[14] u[15]
 u[16] u[17] u[18] u[19] u[20] u[21] u[22] u[23] u[24] u[25] u[26] u[27]
 u[28] u[29] u[30] u[31] u[32] u[33] u[34] u[35] u[36] u[37] u[38] u[39]
 u[40] u[41] u[42] u[43] u[44] u[45] u[46] u[47] u[48] u[49] u[50] u[51]
 u[52] u[53] u[54] u[55] u[56] u[57] u[58] u[59] r[0] r[1] r[2] r[3] r[4]
 r[5] r[6] r[7] r[8] r[9] r[10] r[11] r[12] r[13] r[14] r[15] r[16] r[17]
 r[18] r[19] r[20] r[21] r[22] r[23] r[24] r[25] r[26] r[27] r[28] r[29]
 r[30] r[31] r[32] r[33] r[34] r[35] r[36] r[37] r[38] r[39] r[40] r[41]
 r[42] r[43] r[44] r[45] r[46] r[47] r[48] r[49] r[50] r[51] r[52] r[53]
 r[54] r[55] r[56] r[57] r[58] r[59]
End
