instances/knapsack/discrete_knapsack_uncertainty/knapsack_60_1.kp
73395
60
312

70 7.0 95
15 1.5 59
93 9.3 45
94 9.4 97
63 6.3 22
4 0.4 26
56 5.6 58
94 9.4 16
60 6.0 71
73 7.3 47
50 5.0 44
74 7.4 16
35 3.5 28
55 5.5 23
51 5.1 64
39 3.9 37
96 9.6 55
59 5.9 31
80 8.0 31
21 2.1 74
60 6.0 82
34 3.4 60
47 4.7 25
89 8.9 89
19 1.9 86
83 8.3 87
25 2.5 73
70 7.0 72
40 4.0 83
6 0.6 29
96 9.6 94
6 0.6 9
62 6.2 5
60 6.0 56
59 5.9 92
84 8.4 34
55 5.5 50
31 3.1 84
75 7.5 7
1 0.1 12
50 5.0 49
84 8.4 86
65 6.5 90
28 2.8 16
26 2.6 51
25 2.5 36
76 7.6 65
12 1.2 21
38 3.8 49
47 4.7 10
33 3.3 40
51 5.1 35
60 6.0 76
15 1.5 90
87 8.7 49
86 8.6 39
76 7.6 55
73 7.3 9
95 9.5 37
73 7.3 100

71271
304

[0.6993455479464308 2.0784694856769694 3.551577142603067 0.21031996137715417 1.7717288738411014 1.2441390830828725 1.16503321696737 3.544707246899516 0.5114418514077319 0.5039172995335931 2.223082814552865 2.132935771772948 1.4157427998291325 1.7764028787580262 3.2944866422708525 4.563860402759923 4.953276502572195 0.8359035830140035 1.0845962417565969 4.451669027465384 4.824121006952811 1.285404099670894 4.667248333511713 0.09847874972129231 1.17650010812917 0.6893979732591726 2.9213241288588723 1.2171386403236988 4.183947161798182 4.68867366971962 1.1403501093824542 0.535995241184621 4.127249295324418 4.818852646414791 2.755476383441619 3.964156286685769 4.425770647393173 3.791793149800239 1.3425040310871819 0.13859661084557903 3.7825444626063103 5.028299687594205 4.913710840986271 2.355820396454292 3.899164788016684 1.2074618768255976 1.1277872379526817 4.992786676990374 2.461556798736432 0.9208057268241899 1.3892933432847117 1.1248359093444236 3.733737767537254 3.078111985298003 0.8637883427354959 3.6802944108194806 2.2793017197562935 3.7369550002049 3.5353273912118506 3.471678213643468]

[76 49 3 72 41 14 98 96 74 79 88 32 37 97 49 97 74 77 30 95 18 96 81 19 81 93 47 4 34 20 62 84 4 58 21 2 29 77 85 31 56 26 63 50 96 11 18 22 68 57 63 5 70 73 77 52 30 47 1 91]
